50
5469 1242 2801 4308 169 4982 9521 4286 8341 9601 205 131 4361 9600 4545 7977 6716 452 4659 6438 1598 1323 6675 3004 6907 2773 761 3746 7873 3490 5460 7740 2771 8669 411 4502 2417 1709 8999 1661 7802 4711 9453 8858 164 9516 5590 7268 1055 7188 
6478 2261 3805 5289 1175 5989 10506 5299 9322 10605 1210 1149 5347 10588 5552 8976 7733 1438 5666 7426 2616 2318 7672 4004 7925 3787 1766 4739 8878 4506 6459 8726 3783 9689 1403 5484 3410 2696 10005 2661 8816 5699 10459 9861 1149 10516 6578 8248 2051 8183 
118761
